File/outputFile/tourFile/lkh_output6.txt
NAME : ../File/prFile/tspFile/tsp_file6.tsp.429.tour
COMMENT : Length = 429
COMMENT : Found by LKH-3 [Keld Helsgaun] Wed Jun 14 17:47:18 2023
TYPE : TOUR
DIMENSION : 30
TOUR_SECTION
1
5
20
25
17
4
21
18
2
28
26
7
16
24
15
29
3
6
8
22
10
23
27
19
11
13
14
12
30
9
-1
EOF
